import types/string.dzn;

extern Error $Dzn::Error$;

$#include "types/Error.hpp"$

// Enumeration describing result of a call
enum Result
{
    Ok,
    Error
};

namespace example.dezyne.utils {

// Definition of injectable interface containing helper functions to modify our error object
interface ErrorHelper
{
    in void AddMessage(inout Error error, in string message);
    in void Clear(inout Error error);

    behavior
    {
        on AddMessage: {}
        on Clear: {}
    }
}

}
